122     4       
19      15      18      16      
0       0       0       0       0       3       2       3       4       
9       9       0       0       0       3       11      25      34      
8       5       0       0       0       3       6       7       32      
9       0       8       0       0       3       5       46      65      
5       0       0       0       5       2       8       103     
6       0       5       0       0       3       9       24      72      
9       4       0       0       0       3       12      19      27      
10      0       0       0       8       3       10      26      33      
3       0       0       0       7       2       15      73      
8       0       0       0       1       2       16      112     
3       0       0       6       0       1       42      
2       0       7       0       0       3       13      14      17      
8       0       5       0       0       3       20      40      105     
1       0       10      0       0       3       18      35      63      
8       10      0       0       0       3       38      67      89      
1       7       0       0       0       3       21      28      57      
10      0       0       0       2       3       23      49      81      
1       8       0       0       0       2       22      106     
7       0       0       0       8       2       37      64      
10      3       0       0       0       1       51      
6       0       0       0       9       2       71      96      
10      3       0       0       0       2       82      84      
5       0       4       0       0       3       30      31      114     
9       0       0       10      0       1       36      
6       6       0       0       0       2       39      61      
6       8       0       0       0       2       29      54      
3       3       0       0       0       1       54      
9       6       0       0       0       1       87      
5       0       0       2       0       1       53      
10      0       0       0       4       2       55      60      
6       2       0       0       0       2       92      118     
4       0       0       0       10      2       70      94      
6       0       4       0       0       1       64      
10      0       0       0       4       3       45      62      77      
1       0       0       4       0       2       57      81      
9       8       0       0       0       1       118     
9       9       0       0       0       2       47      80      
8       0       0       10      0       2       41      69      
8       6       0       0       0       2       50      107     
9       0       0       10      0       1       43      
2       5       0       0       0       1       76      
9       0       9       0       0       1       43      
3       0       0       0       3       1       44      
8       2       0       0       0       1       120     
6       0       0       2       0       3       48      59      95      
9       0       10      0       0       1       90      
8       0       8       0       0       1       75      
6       0       0       0       4       3       52      76      85      
3       10      0       0       0       1       58      
3       3       0       0       0       3       56      74      102     
4       0       10      0       0       1       96      
5       0       0       9       0       1       99      
1       10      0       0       0       1       75      
9       0       0       9       0       1       87      
5       0       0       5       0       2       90      116     
10      1       0       0       0       1       68      
1       9       0       0       0       1       79      
9       0       0       10      0       1       106     
8       0       0       0       9       2       66      78      
1       0       0       8       0       1       99      
6       4       0       0       0       2       75      91      
9       0       0       0       8       1       64      
10      0       0       2       0       1       70      
6       0       6       0       0       1       107     
6       0       0       0       8       1       66      
8       0       0       0       2       2       104     117     
10      0       0       0       4       1       82      
9       0       0       3       0       1       94      
7       0       0       0       2       1       92      
5       7       0       0       0       1       109     
4       0       0       0       3       1       88      
8       0       0       0       7       1       101     
6       0       0       0       1       1       79      
5       2       0       0       0       1       117     
1       3       0       0       0       1       87      
1       0       4       0       0       1       100     
10      0       10      0       0       1       102     
6       9       0       0       0       3       83      93      111     
10      0       0       0       10      1       108     
10      0       0       0       4       2       98      101     
3       6       0       0       0       1       100     
4       2       0       0       0       1       110     
5       3       0       0       0       1       113     
1       1       0       0       0       1       86      
10      0       2       0       0       1       104     
4       9       0       0       0       1       112     
8       0       3       0       0       1       104     
3       0       0       0       3       1       119     
7       0       0       0       10      1       106     
9       0       0       0       6       1       97      
3       0       0       0       2       2       97      115     
7       0       0       3       0       1       99      
7       0       4       0       0       1       100     
6       0       0       6       0       1       110     
9       6       0       0       0       1       109     
9       0       0       9       0       1       119     
5       0       0       0       4       1       103     
5       4       0       0       0       1       121     
9       3       0       0       0       2       103     105     
3       10      0       0       0       1       110     
6       5       0       0       0       1       109     
5       0       0       0       1       1       111     
10      0       2       0       0       1       117     
5       0       0       4       0       1       107     
2       0       0       9       0       1       115     
9       0       0       10      0       1       112     
9       2       0       0       0       1       113     
10      0       0       10      0       1       115     
2       0       0       7       0       1       111     
8       3       0       0       0       1       114     
7       0       0       4       0       2       113     121     
9       0       0       7       0       1       114     
1       0       0       3       0       1       118     
2       4       0       0       0       1       116     
6       0       6       0       0       1       121     
9       4       0       0       0       1       119     
1       0       0       2       0       1       120     
6       0       4       0       0       1       120     
2       0       3       0       0       1       122     
4       4       0       0       0       1       122     
3       0       2       0       0       1       122     
0       0       0       0       0       0       